FoodBank_SmallCase4P2Z.lp
\ Model Food_Bank
\ LP format - for model browsing. Use MPS format to capture full model detail.
Minimize
  1.533 dt_1_1_1 + 1.533 dt_1_1_2 + 1.533 dt_1_1_3 + 1.533 dt_1_1_4
   + 1.533 dt_1_2_1 + 1.533 dt_1_2_2 + 1.533 dt_1_2_3 + 1.533 dt_1_2_4
   + 1.533 dt_1_3_1 + 1.533 dt_1_3_2 + 1.533 dt_1_3_3 + 1.533 dt_1_3_4
   + 1.533 dt_1_4_1 + 1.533 dt_1_4_2 + 1.533 dt_1_4_3 + 1.533 dt_1_4_4
   + 1.533 dt_1_5_1 + 1.533 dt_1_5_2 + 1.533 dt_1_5_3 + 1.533 dt_1_5_4
   + 1.533 dt_1_6_1 + 1.533 dt_1_6_2 + 1.533 dt_1_6_3 + 1.533 dt_1_6_4
   + 1.533 dt_1_7_1 + 1.533 dt_1_7_2 + 1.533 dt_1_7_3 + 1.533 dt_1_7_4 + [
   0.114848 aFP_1_1 * fFP_1_1 + 0.114848 aFP_1_2 * fFP_1_2
   + 0.114848 aFP_1_3 * fFP_1_3 + 0.114848 aFP_1_4 * fFP_1_4
   + 0.114848 aFP_1_5 * fFP_1_5 + 0.114848 aFP_1_6 * fFP_1_6
   + 0.114848 aFP_1_7 * fFP_1_7 + 376.81504 nT_1_1 * fFP_1_1
   + 477.97344 nT_1_2 * fFP_1_2 + 647.41376 nT_1_3 * fFP_1_3
   + 854.7884799999999 nT_1_4 * fFP_1_4
   + 923.0703999999999 nT_1_5 * fFP_1_5
   + 923.0703999999999 nT_1_6 * fFP_1_6 + 500.73408 nT_1_7 * fFP_1_7
   + 0.34966 dt_1_1 * dt_1_1_1 + 0.34966 dt_1_2 * dt_1_1_2
   + 0.34966 dt_1_3 * dt_1_1_3 + 0.34966 dt_1_4 * dt_1_1_4
   + 0.34966 dt_2_1 * dt_1_2_1 + 0.34966 dt_2_2 * dt_1_2_2
   + 0.34966 dt_2_3 * dt_1_2_3 + 0.34966 dt_2_4 * dt_1_2_4
   + 0.34966 dt_3_1 * dt_1_3_1 + 0.34966 dt_3_2 * dt_1_3_2
   + 0.34966 dt_3_3 * dt_1_3_3 + 0.34966 dt_3_4 * dt_1_3_4
   + 0.34966 dt_4_1 * dt_1_4_1 + 0.34966 dt_4_2 * dt_1_4_2
   + 0.34966 dt_4_3 * dt_1_4_3 + 0.34966 dt_4_4 * dt_1_4_4
   + 0.34966 dt_5_1 * dt_1_5_1 + 0.34966 dt_5_2 * dt_1_5_2
   + 0.34966 dt_5_3 * dt_1_5_3 + 0.34966 dt_5_4 * dt_1_5_4
   + 0.34966 dt_6_1 * dt_1_6_1 + 0.34966 dt_6_2 * dt_1_6_2
   + 0.34966 dt_6_3 * dt_1_6_3 + 0.34966 dt_6_4 * dt_1_6_4
   + 0.34966 dt_7_1 * dt_1_7_1 + 0.34966 dt_7_2 * dt_1_7_2
   + 0.34966 dt_7_3 * dt_1_7_3 + 0.34966 dt_7_4 * dt_1_7_4 ] / 2 
Subject To
 F1_sendsFood_Pj: x_1_1 + x_1_2 + x_1_3 + x_1_4 + x_1_5 + x_1_6 + x_1_7
   >= 1
 P1_receiveFood_Fi: x_1_1 <= 1
 P2_receiveFood_Fi: x_1_2 <= 1
 P3_receiveFood_Fi: x_1_3 <= 1
 P4_receiveFood_Fi: x_1_4 <= 1
 P5_receiveFood_Fi: x_1_5 <= 1
 P6_receiveFood_Fi: x_1_6 <= 1
 P7_receiveFood_Fi: x_1_7 <= 1
 P1_sendsFood_Zk: y_1_1 + y_1_2 + y_1_3 + y_1_4 <= 1
 P2_sendsFood_Zk: y_2_1 + y_2_2 + y_2_3 + y_2_4 <= 1
 P3_sendsFood_Zk: y_3_1 + y_3_2 + y_3_3 + y_3_4 <= 1
 P4_sendsFood_Zk: y_4_1 + y_4_2 + y_4_3 + y_4_4 <= 1
 P5_sendsFood_Zk: y_5_1 + y_5_2 + y_5_3 + y_5_4 <= 1
 P6_sendsFood_Zk: y_6_1 + y_6_2 + y_6_3 + y_6_4 <= 1
 P7_sendsFood_Zk: y_7_1 + y_7_2 + y_7_3 + y_7_4 <= 1
 Z1_receiveFood_Pj: y_1_1 + y_2_1 + y_3_1 + y_4_1 + y_5_1 + y_6_1 + y_7_1
   >= 1
 Z2_receiveFood_Pj: y_1_2 + y_2_2 + y_3_2 + y_4_2 + y_5_2 + y_6_2 + y_7_2
   >= 1
 Z3_receiveFood_Pj: y_1_3 + y_2_3 + y_3_3 + y_4_3 + y_5_3 + y_6_3 + y_7_3
   >= 1
 Z4_receiveFood_Pj: y_1_4 + y_2_4 + y_3_4 + y_4_4 + y_5_4 + y_6_4 + y_7_4
   >= 1
 R19: - 24000 y_1_1 + dt_1_1 <= 0
 R20: - 24000 y_1_2 + dt_1_2 <= 0
 R21: - 24000 y_1_3 + dt_1_3 <= 0
 R22: - 24000 y_1_4 + dt_1_4 <= 0
 R23: - 24000 y_2_1 + dt_2_1 <= 0
 R24: - 24000 y_2_2 + dt_2_2 <= 0
 R25: - 24000 y_2_3 + dt_2_3 <= 0
 R26: - 24000 y_2_4 + dt_2_4 <= 0
 R27: - 24000 y_3_1 + dt_3_1 <= 0
 R28: - 24000 y_3_2 + dt_3_2 <= 0
 R29: - 24000 y_3_3 + dt_3_3 <= 0
 R30: - 24000 y_3_4 + dt_3_4 <= 0
 R31: - 24000 y_4_1 + dt_4_1 <= 0
 R32: - 24000 y_4_2 + dt_4_2 <= 0
 R33: - 24000 y_4_3 + dt_4_3 <= 0
 R34: - 24000 y_4_4 + dt_4_4 <= 0
 R35: - 24000 y_5_1 + dt_5_1 <= 0
 R36: - 24000 y_5_2 + dt_5_2 <= 0
 R37: - 24000 y_5_3 + dt_5_3 <= 0
 R38: - 24000 y_5_4 + dt_5_4 <= 0
 R39: - 24000 y_6_1 + dt_6_1 <= 0
 R40: - 24000 y_6_2 + dt_6_2 <= 0
 R41: - 24000 y_6_3 + dt_6_3 <= 0
 R42: - 24000 y_6_4 + dt_6_4 <= 0
 R43: - 24000 y_7_1 + dt_7_1 <= 0
 R44: - 24000 y_7_2 + dt_7_2 <= 0
 R45: - 24000 y_7_3 + dt_7_3 <= 0
 R46: - 24000 y_7_4 + dt_7_4 <= 0
 R47: - 97460 x_1_1 + aFP_1_1 <= 0
 R48: - 86405 x_1_2 + aFP_1_2 <= 0
 R49: - 75591 x_1_3 + aFP_1_3 <= 0
 R50: - 69098 x_1_4 + aFP_1_4 <= 0
 R51: - 59602 x_1_5 + aFP_1_5 <= 0
 R52: - 46275 x_1_6 + aFP_1_6 <= 0
 R53: - 61767 x_1_7 + aFP_1_7 <= 0
 R54: aFP_1_1 + aFP_1_2 + aFP_1_3 + aFP_1_4 + aFP_1_5 + aFP_1_6 + aFP_1_7
   <= 3.8920713e+09
 R55: aFP_1_1 - aPZ_1_1 - aPZ_1_2 - aPZ_1_3 - aPZ_1_4 = 0
 R56: aFP_1_2 - aPZ_2_1 - aPZ_2_2 - aPZ_2_3 - aPZ_2_4 = 0
 R57: aFP_1_3 - aPZ_3_1 - aPZ_3_2 - aPZ_3_3 - aPZ_3_4 = 0
 R58: aFP_1_4 - aPZ_4_1 - aPZ_4_2 - aPZ_4_3 - aPZ_4_4 = 0
 R59: aFP_1_5 - aPZ_5_1 - aPZ_5_2 - aPZ_5_3 - aPZ_5_4 = 0
 R60: aFP_1_6 - aPZ_6_1 - aPZ_6_2 - aPZ_6_3 - aPZ_6_4 = 0
 R61: aFP_1_7 - aPZ_7_1 - aPZ_7_2 - aPZ_7_3 - aPZ_7_4 = 0
 R62: - 1.2738844300000001e+08 y_1_1 + aPZ_1_1 <= 0
 R63: - 1.2738844300000001e+08 y_1_2 + aPZ_1_2 <= 0
 R64: - 1.2738844300000001e+08 y_1_3 + aPZ_1_3 <= 0
 R65: - 1.2738844300000001e+08 y_1_4 + aPZ_1_4 <= 0
 R66: - 1.2738844300000001e+08 y_2_1 + aPZ_2_1 <= 0
 R67: - 1.2738844300000001e+08 y_2_2 + aPZ_2_2 <= 0
 R68: - 1.2738844300000001e+08 y_2_3 + aPZ_2_3 <= 0
 R69: - 1.2738844300000001e+08 y_2_4 + aPZ_2_4 <= 0
 R70: - 1.2738844300000001e+08 y_3_1 + aPZ_3_1 <= 0
 R71: - 1.2738844300000001e+08 y_3_2 + aPZ_3_2 <= 0
 R72: - 1.2738844300000001e+08 y_3_3 + aPZ_3_3 <= 0
 R73: - 1.2738844300000001e+08 y_3_4 + aPZ_3_4 <= 0
 R74: - 1.2738844300000001e+08 y_4_1 + aPZ_4_1 <= 0
 R75: - 1.2738844300000001e+08 y_4_2 + aPZ_4_2 <= 0
 R76: - 1.2738844300000001e+08 y_4_3 + aPZ_4_3 <= 0
 R77: - 1.2738844300000001e+08 y_4_4 + aPZ_4_4 <= 0
 R78: - 1.2738844300000001e+08 y_5_1 + aPZ_5_1 <= 0
 R79: - 1.2738844300000001e+08 y_5_2 + aPZ_5_2 <= 0
 R80: - 1.2738844300000001e+08 y_5_3 + aPZ_5_3 <= 0
 R81: - 1.2738844300000001e+08 y_5_4 + aPZ_5_4 <= 0
 R82: - 1.2738844300000001e+08 y_6_1 + aPZ_6_1 <= 0
 R83: - 1.2738844300000001e+08 y_6_2 + aPZ_6_2 <= 0
 R84: - 1.2738844300000001e+08 y_6_3 + aPZ_6_3 <= 0
 R85: - 1.2738844300000001e+08 y_6_4 + aPZ_6_4 <= 0
 R86: - 1.2738844300000001e+08 y_7_1 + aPZ_7_1 <= 0
 R87: - 1.2738844300000001e+08 y_7_2 + aPZ_7_2 <= 0
 R88: - 1.2738844300000001e+08 y_7_3 + aPZ_7_3 <= 0
 R89: - 1.2738844300000001e+08 y_7_4 + aPZ_7_4 <= 0
 R90: - 24000 x_1_1 + ort_1_1 <= 0
 R91: - 24000 x_1_2 + ort_1_2 <= 0
 R92: - 24000 x_1_3 + ort_1_3 <= 0
 R93: - 24000 x_1_4 + ort_1_4 <= 0
 R94: - 24000 x_1_5 + ort_1_5 <= 0
 R95: - 24000 x_1_6 + ort_1_6 <= 0
 R96: - 24000 x_1_7 + ort_1_7 <= 0
 R97: - aFP_1_1 + 10000 nT_1_1 >= 0
 R98: - aFP_1_2 + 10000 nT_1_2 >= 0
 R99: - aFP_1_3 + 10000 nT_1_3 >= 0
 R100: - aFP_1_4 + 10000 nT_1_4 >= 0
 R101: - aFP_1_5 + 10000 nT_1_5 >= 0
 R102: - aFP_1_6 + 10000 nT_1_6 >= 0
 R103: - aFP_1_7 + 10000 nT_1_7 >= 0
 R104: nT_1_1 + nT_1_2 + nT_1_3 + nT_1_4 + nT_1_5 + nT_1_6 + nT_1_7 <= 700
 R105: - 24000 nT_1_1 + fFP_1_1 <= 0
 R106: - 24000 nT_1_2 + fFP_1_2 <= 0
 R107: - 24000 nT_1_3 + fFP_1_3 <= 0
 R108: - 24000 nT_1_4 + fFP_1_4 <= 0
 R109: - 24000 nT_1_5 + fFP_1_5 <= 0
 R110: - 24000 nT_1_6 + fFP_1_6 <= 0
 R111: - 24000 nT_1_7 + fFP_1_7 <= 0
 R112: - 0.0008 aFP_1_1 + ut_1_1 = 0
 R113: - 0.0008 aFP_1_2 + ut_1_2 = 0
 R114: - 0.0008 aFP_1_3 + ut_1_3 = 0
 R115: - 0.0008 aFP_1_4 + ut_1_4 = 0
 R116: - 0.0008 aFP_1_5 + ut_1_5 = 0
 R117: - 0.0008 aFP_1_6 + ut_1_6 = 0
 R118: - 0.0008 aFP_1_7 + ut_1_7 = 0
 R119: 1.192 x_1_1 - ort_1_1 + opt_1_1 <= 0
 R120: 1.512 x_1_2 - ort_1_2 + opt_1_2 <= 0
 R121: 2.048 x_1_3 - ort_1_3 + opt_1_3 <= 0
 R122: 2.704 x_1_4 - ort_1_4 + opt_1_4 <= 0
 R123: 2.92 x_1_5 - ort_1_5 + opt_1_5 <= 0
 R124: 2.92 x_1_6 - ort_1_6 + opt_1_6 <= 0
 R125: 1.584 x_1_7 - ort_1_7 + opt_1_7 <= 0
 R126: - 2.709677419354839 y_1_1 - 3.32258064516129 y_1_2
   - 2.903225806451613 y_1_3 - 1.67741935483871 y_1_4 + opt_1_1 - ut_1_1
   >= 0
 R127: - 4.354838709677419 y_2_1 - 5.258064516129032 y_2_2
   - 3.612903225806451 y_2_3 - 4.290322580645161 y_2_4 + opt_1_2 - ut_1_2
   >= 0
 R128: - 6.161290322580645 y_3_1 - 6.774193548387097 y_3_2
   - 6.354838709677419 y_3_3 - 5.129032258064516 y_3_4 + opt_1_3 - ut_1_3
   >= 0
 R129: - 10.74193548387097 y_4_1 - 10.41935483870968 y_4_2 - 10 y_4_3
   - 11.48387096774194 y_4_4 + opt_1_4 - ut_1_4 >= 0
 R130: - 10 y_5_1 - 10.90322580645161 y_5_2 - 9.258064516129032 y_5_3
   - 10.7741935483871 y_5_4 + opt_1_5 - ut_1_5 >= 0
 R131: - 10 y_6_1 - 10.90322580645161 y_6_2 - 9.258064516129032 y_6_3
   - 10.7741935483871 y_6_4 + opt_1_6 - ut_1_6 >= 0
 R132: - 5.032258064516129 y_7_1 - 5.419354838709678 y_7_2
   - 6.032258064516129 y_7_3 - 5.580645161290323 y_7_4 + opt_1_7 - ut_1_7
   >= 0
 R133: - 24000 x_1_1 + opt_1_1 <= 0
 R134: - 24000 x_1_2 + opt_1_2 <= 0
 R135: - 24000 x_1_3 + opt_1_3 <= 0
 R136: - 24000 x_1_4 + opt_1_4 <= 0
 R137: - 24000 x_1_5 + opt_1_5 <= 0
 R138: - 24000 x_1_6 + opt_1_6 <= 0
 R139: - 24000 x_1_7 + opt_1_7 <= 0
 qc0: - aPZ_1_1 - 936.9094583333335 dt_1_1 + [
   936.9094583333335 y_1_1 * ort_1_1 ] = 0
 qc1: - aPZ_1_2 - 586.2588333333334 dt_1_2 + [
   586.2588333333334 y_1_2 * ort_1_1 ] = 0
 qc2: - aPZ_1_3 - 1823.941166666667 dt_1_3 + [
   1823.941166666667 y_1_3 * ort_1_1 ] = 0
 qc3: - aPZ_1_4 - 1424.249666666667 dt_1_4 + [
   1424.249666666667 y_1_4 * ort_1_1 ] = 0
 qc4: - aPZ_2_1 - 936.9094583333335 dt_2_1 + [
   936.9094583333335 y_2_1 * ort_1_2 ] = 0
 qc5: - aPZ_2_2 - 586.2588333333334 dt_2_2 + [
   586.2588333333334 y_2_2 * ort_1_2 ] = 0
 qc6: - aPZ_2_3 - 1823.941166666667 dt_2_3 + [
   1823.941166666667 y_2_3 * ort_1_2 ] = 0
 qc7: - aPZ_2_4 - 1424.249666666667 dt_2_4 + [
   1424.249666666667 y_2_4 * ort_1_2 ] = 0
 qc8: - aPZ_3_1 - 936.9094583333335 dt_3_1 + [
   936.9094583333335 y_3_1 * ort_1_3 ] = 0
 qc9: - aPZ_3_2 - 586.2588333333334 dt_3_2 + [
   586.2588333333334 y_3_2 * ort_1_3 ] = 0
 qc10: - aPZ_3_3 - 1823.941166666667 dt_3_3 + [
   1823.941166666667 y_3_3 * ort_1_3 ] = 0
 qc11: - aPZ_3_4 - 1424.249666666667 dt_3_4 + [
   1424.249666666667 y_3_4 * ort_1_3 ] = 0
 qc12: - aPZ_4_1 - 936.9094583333335 dt_4_1 + [
   936.9094583333335 y_4_1 * ort_1_4 ] = 0
 qc13: - aPZ_4_2 - 586.2588333333334 dt_4_2 + [
   586.2588333333334 y_4_2 * ort_1_4 ] = 0
 qc14: - aPZ_4_3 - 1823.941166666667 dt_4_3 + [
   1823.941166666667 y_4_3 * ort_1_4 ] = 0
 qc15: - aPZ_4_4 - 1424.249666666667 dt_4_4 + [
   1424.249666666667 y_4_4 * ort_1_4 ] = 0
 qc16: - aPZ_5_1 - 936.9094583333335 dt_5_1 + [
   936.9094583333335 y_5_1 * ort_1_5 ] = 0
 qc17: - aPZ_5_2 - 586.2588333333334 dt_5_2 + [
   586.2588333333334 y_5_2 * ort_1_5 ] = 0
 qc18: - aPZ_5_3 - 1823.941166666667 dt_5_3 + [
   1823.941166666667 y_5_3 * ort_1_5 ] = 0
 qc19: - aPZ_5_4 - 1424.249666666667 dt_5_4 + [
   1424.249666666667 y_5_4 * ort_1_5 ] = 0
 qc20: - aPZ_6_1 - 936.9094583333335 dt_6_1 + [
   936.9094583333335 y_6_1 * ort_1_6 ] = 0
 qc21: - aPZ_6_2 - 586.2588333333334 dt_6_2 + [
   586.2588333333334 y_6_2 * ort_1_6 ] = 0
 qc22: - aPZ_6_3 - 1823.941166666667 dt_6_3 + [
   1823.941166666667 y_6_3 * ort_1_6 ] = 0
 qc23: - aPZ_6_4 - 1424.249666666667 dt_6_4 + [
   1424.249666666667 y_6_4 * ort_1_6 ] = 0
 qc24: - aPZ_7_1 - 936.9094583333335 dt_7_1 + [
   936.9094583333335 y_7_1 * ort_1_7 ] = 0
 qc25: - aPZ_7_2 - 586.2588333333334 dt_7_2 + [
   586.2588333333334 y_7_2 * ort_1_7 ] = 0
 qc26: - aPZ_7_3 - 1823.941166666667 dt_7_3 + [
   1823.941166666667 y_7_3 * ort_1_7 ] = 0
 qc27: - aPZ_7_4 - 1424.249666666667 dt_7_4 + [
   1424.249666666667 y_7_4 * ort_1_7 ] = 0
 qc28: - 2.709677419354839 y_1_1 + dt_1_1 + [ - y_1_1 * ut_1_1 ] >= 0
 qc29: - 3.32258064516129 y_1_2 + dt_1_2 + [ - y_1_2 * ut_1_1 ] >= 0
 qc30: - 2.903225806451613 y_1_3 + dt_1_3 + [ - y_1_3 * ut_1_1 ] >= 0
 qc31: - 1.67741935483871 y_1_4 + dt_1_4 + [ - y_1_4 * ut_1_1 ] >= 0
 qc32: - 4.354838709677419 y_2_1 + dt_2_1 + [ - y_2_1 * ut_1_2 ] >= 0
 qc33: - 5.258064516129032 y_2_2 + dt_2_2 + [ - y_2_2 * ut_1_2 ] >= 0
 qc34: - 3.612903225806451 y_2_3 + dt_2_3 + [ - y_2_3 * ut_1_2 ] >= 0
 qc35: - 4.290322580645161 y_2_4 + dt_2_4 + [ - y_2_4 * ut_1_2 ] >= 0
 qc36: - 6.161290322580645 y_3_1 + dt_3_1 + [ - y_3_1 * ut_1_3 ] >= 0
 qc37: - 6.774193548387097 y_3_2 + dt_3_2 + [ - y_3_2 * ut_1_3 ] >= 0
 qc38: - 6.354838709677419 y_3_3 + dt_3_3 + [ - y_3_3 * ut_1_3 ] >= 0
 qc39: - 5.129032258064516 y_3_4 + dt_3_4 + [ - y_3_4 * ut_1_3 ] >= 0
 qc40: - 10.74193548387097 y_4_1 + dt_4_1 + [ - y_4_1 * ut_1_4 ] >= 0
 qc41: - 10.41935483870968 y_4_2 + dt_4_2 + [ - y_4_2 * ut_1_4 ] >= 0
 qc42: - 10 y_4_3 + dt_4_3 + [ - y_4_3 * ut_1_4 ] >= 0
 qc43: - 11.48387096774194 y_4_4 + dt_4_4 + [ - y_4_4 * ut_1_4 ] >= 0
 qc44: - 10 y_5_1 + dt_5_1 + [ - y_5_1 * ut_1_5 ] >= 0
 qc45: - 10.90322580645161 y_5_2 + dt_5_2 + [ - y_5_2 * ut_1_5 ] >= 0
 qc46: - 9.258064516129032 y_5_3 + dt_5_3 + [ - y_5_3 * ut_1_5 ] >= 0
 qc47: - 10.7741935483871 y_5_4 + dt_5_4 + [ - y_5_4 * ut_1_5 ] >= 0
 qc48: - 10 y_6_1 + dt_6_1 + [ - y_6_1 * ut_1_6 ] >= 0
 qc49: - 10.90322580645161 y_6_2 + dt_6_2 + [ - y_6_2 * ut_1_6 ] >= 0
 qc50: - 9.258064516129032 y_6_3 + dt_6_3 + [ - y_6_3 * ut_1_6 ] >= 0
 qc51: - 10.7741935483871 y_6_4 + dt_6_4 + [ - y_6_4 * ut_1_6 ] >= 0
 qc52: - 5.032258064516129 y_7_1 + dt_7_1 + [ - y_7_1 * ut_1_7 ] >= 0
 qc53: - 5.419354838709678 y_7_2 + dt_7_2 + [ - y_7_2 * ut_1_7 ] >= 0
 qc54: - 6.032258064516129 y_7_3 + dt_7_3 + [ - y_7_3 * ut_1_7 ] >= 0
 qc55: - 5.580645161290323 y_7_4 + dt_7_4 + [ - y_7_4 * ut_1_7 ] >= 0
 qc56: aPZ_1_1 + aPZ_2_1 + aPZ_3_1 + aPZ_4_1 + aPZ_5_1 + aPZ_6_1 + aPZ_7_1
   + [ - 936.9094583333335 y_1_1 * ort_1_1 ] >= 0
 qc57: aPZ_1_2 + aPZ_2_2 + aPZ_3_2 + aPZ_4_2 + aPZ_5_2 + aPZ_6_2 + aPZ_7_2
   + [ - 586.2588333333334 y_1_2 * ort_1_1 ] >= 0
 qc58: aPZ_1_3 + aPZ_2_3 + aPZ_3_3 + aPZ_4_3 + aPZ_5_3 + aPZ_6_3 + aPZ_7_3
   + [ - 1823.941166666667 y_1_3 * ort_1_1 ] >= 0
 qc59: aPZ_1_4 + aPZ_2_4 + aPZ_3_4 + aPZ_4_4 + aPZ_5_4 + aPZ_6_4 + aPZ_7_4
   + [ - 1424.249666666667 y_1_4 * ort_1_1 ] >= 0
 qc60: aPZ_1_1 + aPZ_2_1 + aPZ_3_1 + aPZ_4_1 + aPZ_5_1 + aPZ_6_1 + aPZ_7_1
   + [ - 936.9094583333335 y_2_1 * ort_1_2 ] >= 0
 qc61: aPZ_1_2 + aPZ_2_2 + aPZ_3_2 + aPZ_4_2 + aPZ_5_2 + aPZ_6_2 + aPZ_7_2
   + [ - 586.2588333333334 y_2_2 * ort_1_2 ] >= 0
 qc62: aPZ_1_3 + aPZ_2_3 + aPZ_3_3 + aPZ_4_3 + aPZ_5_3 + aPZ_6_3 + aPZ_7_3
   + [ - 1823.941166666667 y_2_3 * ort_1_2 ] >= 0
 qc63: aPZ_1_4 + aPZ_2_4 + aPZ_3_4 + aPZ_4_4 + aPZ_5_4 + aPZ_6_4 + aPZ_7_4
   + [ - 1424.249666666667 y_2_4 * ort_1_2 ] >= 0
 qc64: aPZ_1_1 + aPZ_2_1 + aPZ_3_1 + aPZ_4_1 + aPZ_5_1 + aPZ_6_1 + aPZ_7_1
   + [ - 936.9094583333335 y_3_1 * ort_1_3 ] >= 0
 qc65: aPZ_1_2 + aPZ_2_2 + aPZ_3_2 + aPZ_4_2 + aPZ_5_2 + aPZ_6_2 + aPZ_7_2
   + [ - 586.2588333333334 y_3_2 * ort_1_3 ] >= 0
 qc66: aPZ_1_3 + aPZ_2_3 + aPZ_3_3 + aPZ_4_3 + aPZ_5_3 + aPZ_6_3 + aPZ_7_3
   + [ - 1823.941166666667 y_3_3 * ort_1_3 ] >= 0
 qc67: aPZ_1_4 + aPZ_2_4 + aPZ_3_4 + aPZ_4_4 + aPZ_5_4 + aPZ_6_4 + aPZ_7_4
   + [ - 1424.249666666667 y_3_4 * ort_1_3 ] >= 0
 qc68: aPZ_1_1 + aPZ_2_1 + aPZ_3_1 + aPZ_4_1 + aPZ_5_1 + aPZ_6_1 + aPZ_7_1
   + [ - 936.9094583333335 y_4_1 * ort_1_4 ] >= 0
 qc69: aPZ_1_2 + aPZ_2_2 + aPZ_3_2 + aPZ_4_2 + aPZ_5_2 + aPZ_6_2 + aPZ_7_2
   + [ - 586.2588333333334 y_4_2 * ort_1_4 ] >= 0
 qc70: aPZ_1_3 + aPZ_2_3 + aPZ_3_3 + aPZ_4_3 + aPZ_5_3 + aPZ_6_3 + aPZ_7_3
   + [ - 1823.941166666667 y_4_3 * ort_1_4 ] >= 0
 qc71: aPZ_1_4 + aPZ_2_4 + aPZ_3_4 + aPZ_4_4 + aPZ_5_4 + aPZ_6_4 + aPZ_7_4
   + [ - 1424.249666666667 y_4_4 * ort_1_4 ] >= 0
 qc72: aPZ_1_1 + aPZ_2_1 + aPZ_3_1 + aPZ_4_1 + aPZ_5_1 + aPZ_6_1 + aPZ_7_1
   + [ - 936.9094583333335 y_5_1 * ort_1_5 ] >= 0
 qc73: aPZ_1_2 + aPZ_2_2 + aPZ_3_2 + aPZ_4_2 + aPZ_5_2 + aPZ_6_2 + aPZ_7_2
   + [ - 586.2588333333334 y_5_2 * ort_1_5 ] >= 0
 qc74: aPZ_1_3 + aPZ_2_3 + aPZ_3_3 + aPZ_4_3 + aPZ_5_3 + aPZ_6_3 + aPZ_7_3
   + [ - 1823.941166666667 y_5_3 * ort_1_5 ] >= 0
 qc75: aPZ_1_4 + aPZ_2_4 + aPZ_3_4 + aPZ_4_4 + aPZ_5_4 + aPZ_6_4 + aPZ_7_4
   + [ - 1424.249666666667 y_5_4 * ort_1_5 ] >= 0
 qc76: aPZ_1_1 + aPZ_2_1 + aPZ_3_1 + aPZ_4_1 + aPZ_5_1 + aPZ_6_1 + aPZ_7_1
   + [ - 936.9094583333335 y_6_1 * ort_1_6 ] >= 0
 qc77: aPZ_1_2 + aPZ_2_2 + aPZ_3_2 + aPZ_4_2 + aPZ_5_2 + aPZ_6_2 + aPZ_7_2
   + [ - 586.2588333333334 y_6_2 * ort_1_6 ] >= 0
 qc78: aPZ_1_3 + aPZ_2_3 + aPZ_3_3 + aPZ_4_3 + aPZ_5_3 + aPZ_6_3 + aPZ_7_3
   + [ - 1823.941166666667 y_6_3 * ort_1_6 ] >= 0
 qc79: aPZ_1_4 + aPZ_2_4 + aPZ_3_4 + aPZ_4_4 + aPZ_5_4 + aPZ_6_4 + aPZ_7_4
   + [ - 1424.249666666667 y_6_4 * ort_1_6 ] >= 0
 qc80: aPZ_1_1 + aPZ_2_1 + aPZ_3_1 + aPZ_4_1 + aPZ_5_1 + aPZ_6_1 + aPZ_7_1
   + [ - 936.9094583333335 y_7_1 * ort_1_7 ] >= 0
 qc81: aPZ_1_2 + aPZ_2_2 + aPZ_3_2 + aPZ_4_2 + aPZ_5_2 + aPZ_6_2 + aPZ_7_2
   + [ - 586.2588333333334 y_7_2 * ort_1_7 ] >= 0
 qc82: aPZ_1_3 + aPZ_2_3 + aPZ_3_3 + aPZ_4_3 + aPZ_5_3 + aPZ_6_3 + aPZ_7_3
   + [ - 1823.941166666667 y_7_3 * ort_1_7 ] >= 0
 qc83: aPZ_1_4 + aPZ_2_4 + aPZ_3_4 + aPZ_4_4 + aPZ_5_4 + aPZ_6_4 + aPZ_7_4
   + [ - 1424.249666666667 y_7_4 * ort_1_7 ] >= 0
 qc84: - 240 x_1_1 + [ ort_1_1 * fFP_1_1 ] >= 0
 qc85: - 240 x_1_2 + [ ort_1_2 * fFP_1_2 ] >= 0
 qc86: - 240 x_1_3 + [ ort_1_3 * fFP_1_3 ] >= 0
 qc87: - 240 x_1_4 + [ ort_1_4 * fFP_1_4 ] >= 0
 qc88: - 240 x_1_5 + [ ort_1_5 * fFP_1_5 ] >= 0
 qc89: - 240 x_1_6 + [ ort_1_6 * fFP_1_6 ] >= 0
 qc90: - 240 x_1_7 + [ ort_1_7 * fFP_1_7 ] >= 0
 qc91: dt_1_1_1 + [ - dt_1_1 * fFP_1_1 ] = 0
 qc92: dt_1_1_2 + [ - dt_1_2 * fFP_1_1 ] = 0
 qc93: dt_1_1_3 + [ - dt_1_3 * fFP_1_1 ] = 0
 qc94: dt_1_1_4 + [ - dt_1_4 * fFP_1_1 ] = 0
 qc95: dt_1_2_1 + [ - dt_2_1 * fFP_1_2 ] = 0
 qc96: dt_1_2_2 + [ - dt_2_2 * fFP_1_2 ] = 0
 qc97: dt_1_2_3 + [ - dt_2_3 * fFP_1_2 ] = 0
 qc98: dt_1_2_4 + [ - dt_2_4 * fFP_1_2 ] = 0
 qc99: dt_1_3_1 + [ - dt_3_1 * fFP_1_3 ] = 0
 qc100: dt_1_3_2 + [ - dt_3_2 * fFP_1_3 ] = 0
 qc101: dt_1_3_3 + [ - dt_3_3 * fFP_1_3 ] = 0
 qc102: dt_1_3_4 + [ - dt_3_4 * fFP_1_3 ] = 0
 qc103: dt_1_4_1 + [ - dt_4_1 * fFP_1_4 ] = 0
 qc104: dt_1_4_2 + [ - dt_4_2 * fFP_1_4 ] = 0
 qc105: dt_1_4_3 + [ - dt_4_3 * fFP_1_4 ] = 0
 qc106: dt_1_4_4 + [ - dt_4_4 * fFP_1_4 ] = 0
 qc107: dt_1_5_1 + [ - dt_5_1 * fFP_1_5 ] = 0
 qc108: dt_1_5_2 + [ - dt_5_2 * fFP_1_5 ] = 0
 qc109: dt_1_5_3 + [ - dt_5_3 * fFP_1_5 ] = 0
 qc110: dt_1_5_4 + [ - dt_5_4 * fFP_1_5 ] = 0
 qc111: dt_1_6_1 + [ - dt_6_1 * fFP_1_6 ] = 0
 qc112: dt_1_6_2 + [ - dt_6_2 * fFP_1_6 ] = 0
 qc113: dt_1_6_3 + [ - dt_6_3 * fFP_1_6 ] = 0
 qc114: dt_1_6_4 + [ - dt_6_4 * fFP_1_6 ] = 0
 qc115: dt_1_7_1 + [ - dt_7_1 * fFP_1_7 ] = 0
 qc116: dt_1_7_2 + [ - dt_7_2 * fFP_1_7 ] = 0
 qc117: dt_1_7_3 + [ - dt_7_3 * fFP_1_7 ] = 0
 qc118: dt_1_7_4 + [ - dt_7_4 * fFP_1_7 ] = 0
Bounds
Binaries
 x_1_1 x_1_2 x_1_3 x_1_4 x_1_5 x_1_6 x_1_7 y_1_1 y_1_2 y_1_3 y_1_4 y_2_1
 y_2_2 y_2_3 y_2_4 y_3_1 y_3_2 y_3_3 y_3_4 y_4_1 y_4_2 y_4_3 y_4_4 y_5_1
 y_5_2 y_5_3 y_5_4 y_6_1 y_6_2 y_6_3 y_6_4 y_7_1 y_7_2 y_7_3 y_7_4
Generals
 nT_1_1 nT_1_2 nT_1_3 nT_1_4 nT_1_5 nT_1_6 nT_1_7 fFP_1_1 fFP_1_2 fFP_1_3
 fFP_1_4 fFP_1_5 fFP_1_6 fFP_1_7
End
