FoodBank_SmallCase4P2Z.sol
# Solution for model Food_Bank
# Objective value = 34681.4907757583
x_1_1 1
x_1_2 1
x_1_3 1
x_1_4 1
y_1_1 1
y_1_2 0
y_2_1 0
y_2_2 1
y_3_1 1
y_3_2 0
y_4_1 0
y_4_2 1
aFP_1_1 1.9355025027095126e+04
aFP_1_2 9.7734212513209350e+03
aFP_1_3 1.8121353306238216e+04
aFP_1_4 7.8143437486790690e+03
aPZ_1_1 1.9355025027095126e+04
aPZ_2_1 0
aPZ_3_1 1.8121353306238216e+04
aPZ_4_1 0
aPZ_1_2 0
aPZ_2_2 9.7734212513209350e+03
aPZ_3_2 0
aPZ_4_2 7.8143437486790690e+03
nT_1_1 2
nT_1_2 1
nT_1_3 2
nT_1_4 1
ort_1_1 40
ort_1_2 30
ort_1_3 40
ort_1_4 30
opt_1_1 1.8193697441030942e+01
opt_1_2 1.3076801517185780e+01
opt_1_3 2.0658372967571218e+01
opt_1_4 1.6670829837652931e+01
dt_1_1 1.9341627032428786e+01
dt_1_2 0
dt_2_1 0
dt_2_2 1.3329170162347065e+01
dt_3_1 2.0658372967571214e+01
dt_3_2 0
dt_4_1 0
dt_4_2 1.6670829837652935e+01
ut_1_1 1.5484020021676102e+01
ut_1_2 7.8187370010567481e+00
ut_1_3 1.4497082644990574e+01
ut_1_4 6.2514749989432552e+00
fFP_1_1 6
fFP_1_2 8
fFP_1_3 6
fFP_1_4 8
dt_1_1_1 1.1604976219457271e+02
dt_1_1_2 0
dt_1_2_1 0
dt_1_2_2 1.0663336129877652e+02
dt_1_3_1 1.2395023780542729e+02
dt_1_3_2 0
dt_1_4_1 0
dt_1_4_2 1.3336663870122348e+02
